(set-logic FO)
(declare-sort Term 0)
(declare-fun f (Term) Bool)
(declare-fun g (Term) Bool)
(declare-fun h (Term) Bool)
(declare-fun i (Term) Bool)
(declare-fun j (Term) Bool)
(declare-fun k (Term) Bool)
(set-info :status unsat)
(assert (forall ((x Term)) (=> (and (f x) (or (g x) (h x))) (i x))))
(assert (forall ((x Term)) (=> (and (i x) (h x)) (j x))))
(assert (forall ((x Term)) (=> (k x) (h x))))
(assert (not (forall ((x Term)) (=> (and (f x) (k x)) (j x)))))
(check-sat)
(exit)
